c  Edge weight dimensions (k=4):
c    w0 = travel time  (minutes / 10)
c    w1 = transfers    (number of changes required)
c    w2 = cost         (ticket price / 10 EUR)
c    w3 = risk         (delay / cancellation risk score)
p sp 12 22 4
c  from  to    time  xfer  cost  risk
a  1   2     3     0     4     1
a  1   3     5     0     6     2
a  1   4     9     0     8     2
a  2   3     2     1     3     1
a  2   4     6     1     5     3
a  3   4     4     0     5     1
a  4   5     5     0     6     1
a  4   6     4     0     5     2
a  4   7     7     1     9     3
a  3   6     8     1     7     2
a  5   6     2     0     3     1
a  6   7     3     0     4     1
a  7   8    10     1    12     4
a  6   8     9     1    10     3
a  5   9    12     1    15     3
a  4   9    14     0    13     2
a  4  10    11     0    11     2
a  3  10    10     0     9     2
a  9  11     4     0     5     1
a 10  11     6     1     6     2
a  8  12     5     0     8     2
a 11  12    16     1    18     5
